States_available = {A1,D2,B3,B4,B1,C2,D3,C1,F3,Z4};
share_species = [| true, true, true, true, false, false, false, false, false, false | true, true, true, true, false, false, false, false, false, false | true, true, true, true, false, false, false, false, false, false | true, true, true, true, true, true, true, false, false, false | false, false, false, true, true, true, true, false, false, false | false, false, false, true, true, true, true, true, true, true | false, false, false, true, true, true, true, false, false, false | false, false, false, false, false, true, false, true, true, true | false, false, false, false, false, true, false, true, true, true | false, false, false, false, false, true, false, true, true, true |];
incompatibilities = [| false, false, false, false, true, false, false, true, false, false | false, false, false, false, false, true, false, false, false, false | false, false, false, false, false, false, true, false, true, false | false, false, false, false, false, false, false, false, false, true | true, false, false, false, false, false, false, true, false, false | false, true, false, false, false, false, false, false, false, false | false, false, true, false, false, false, false, false, true, false | true, false, false, false, true, false, false, false, false, false | false, false, true, false, false, false, true, false, false, false | false, false, false, true, false, false, false, false, false, false |];
number_States = 1..10;
axe1 = A1..Z4;
axe2 = A1..Z4;
